100
40 4
40 0
7 1
19 3
25 1
11 4
15 3
38 4
28 2
6 0
11 3
0 3
33 2
13 3
36 4
33 0
14 4
22 4
28 4
27 3
25 0
3 0
0 4
12 4
5 2
39 3
40 2
7 3
11 0
3 4
15 0
36 0
27 4
7 2
21 1
5 4
0 0
34 3
13 1
37 4
39 2
41 1
33 1
18 4
2 0
23 0
43 4
16 4
9 4
34 1
1 1
12 0
16 3
30 4
34 4
9 3
20 3
10 0
21 0
2 1
31 3
14 3
42 4
4 3
9 0
27 0
41 4
18 0
43 3
34 2
31 4
39 4
31 0
19 4
34 0
22 0
33 4
24 0
41 0
22 3
20 1
18 1
32 0
7 0
16 2
0 1
16 1
2 4
30 0
25 3
1 0
20 0
25 4
28 0
24 4
6 3
23 2
4 0
32 3
5 0

